(set-logic QF_S)
(declare-fun var0 () String)
(assert (str.in.re var0 (re.++ (re.union (re.+ (str.to.re "0")) (re.+ (str.to.re "11"))) (re.++ (re.* (re.union (str.to.re "2") (str.to.re "3"))) (re.++ (re.union (re.* (str.to.re "444")) (re.* (str.to.re "5"))) (re.++ (re.union (re.* (str.to.re "66")) (re.* (str.to.re "7"))) (re.++ (re.* (re.* (str.to.re "888"))) (re.++ (re.+ (re.union (str.to.re "999") (str.to.re "aaa"))) (re.++ (re.+ (re.+ (str.to.re "b"))) (re.++ (re.+ (re.* (str.to.re "ccc"))) (re.++ (re.union (re.+ (str.to.re "ddd")) (re.+ (str.to.re "eee"))) (re.++ (re.+ (re.+ (str.to.re "fff"))) (re.++ (re.union (re.+ (str.to.re "g")) (re.+ (str.to.re "h"))) (re.++ (re.union (re.* (str.to.re "iii")) (re.* (str.to.re "j"))) (re.++ (re.union (re.* (str.to.re "kk")) (re.* (str.to.re "ll"))) (re.++ (re.union (re.+ (str.to.re "mmm")) (re.+ (str.to.re "n"))) (re.++ (re.+ (re.+ (str.to.re "ooo"))) (re.++ (re.+ (re.union (str.to.re "p") (str.to.re "qqq"))) (re.++ (re.* (re.* (str.to.re "rr"))) (re.++ (re.+ (re.* (str.to.re "sss"))) (re.++ (re.* (re.* (str.to.re "ttt"))) (re.++ (re.+ (re.+ (str.to.re "u"))) (re.++ (re.* (re.* (str.to.re "vvv"))) (re.++ (re.union (re.union (str.to.re "w") (str.to.re "x")) (re.union (str.to.re "yyy") (str.to.re "zz"))) (re.++ (re.* (re.+ (str.to.re "A"))) (re.++ (re.* (re.union (str.to.re "BB") (str.to.re "C"))) (re.++ (re.* (re.union (str.to.re "D") (str.to.re "EE"))) (re.++ (re.+ (re.union (str.to.re "FF") (str.to.re "G"))) (re.++ (re.union (re.union (str.to.re "HHH") (str.to.re "III")) (re.union (str.to.re "JJ") (str.to.re "KKK"))) (re.++ (re.union (re.+ (str.to.re "LLL")) (re.+ (str.to.re "MM"))) (re.++ (re.+ (re.* (str.to.re "NNN"))) (re.++ (re.+ (re.union (str.to.re "OOO") (str.to.re "P"))) (re.++ (re.union (re.union (str.to.re "QQ") (str.to.re "RRR")) (re.union (str.to.re "S") (str.to.re "T"))) (re.++ (re.* (re.* (str.to.re "UUU"))) (re.++ (re.* (re.+ (str.to.re "VV"))) (re.++ (re.union (re.+ (str.to.re "WW")) (re.+ (str.to.re "X"))) (re.++ (re.+ (re.* (str.to.re "YY"))) (re.++ (re.* (re.* (str.to.re "Z"))) (re.++ (re.* (re.union (str.to.re "!!!") (str.to.re """"))) (re.++ (re.union (re.+ (str.to.re "###")) (re.+ (str.to.re "$"))) (re.++ (re.+ (re.union (str.to.re "%") (str.to.re "&"))) (re.++ (re.* (re.union (str.to.re "'''") (str.to.re "((("))) (re.++ (re.* (re.union (str.to.re "))") (str.to.re "**"))) (re.++ (re.+ (re.* (str.to.re "++"))) (re.++ (re.union (re.+ (str.to.re ",,,")) (re.+ (str.to.re "---"))) (re.++ (re.+ (re.* (str.to.re ".."))) (re.++ (re.* (re.union (str.to.re "//") (str.to.re "::"))) (re.++ (re.* (re.+ (str.to.re ";;"))) (re.++ (re.* (re.+ (str.to.re "<<<"))) (re.++ (re.union (re.+ (str.to.re "=")) (re.+ (str.to.re ">"))) (re.++ (re.+ (re.union (str.to.re "??") (str.to.re "@"))) (re.++ (re.union (re.union (str.to.re "[[") (str.to.re "\\")) (re.union (str.to.re "]") (str.to.re "^^"))) (re.++ (re.+ (re.* (str.to.re "___"))) (re.++ (re.+ (re.* (str.to.re "```"))) (re.++ (re.* (re.* (str.to.re "{{"))) (re.++ (re.+ (re.+ (str.to.re "|"))) (re.++ (re.union (re.* (str.to.re "}}")) (re.* (str.to.re "~~"))) (re.++ (re.union (re.+ (str.to.re "00")) (re.+ (str.to.re "111"))) (re.++ (re.union (re.* (str.to.re "22")) (re.* (str.to.re "333"))) (re.++ (re.+ (re.* (str.to.re "4"))) (re.++ (re.* (re.union (str.to.re "5") (str.to.re "6"))) (re.++ (re.union (re.union (str.to.re "777") (str.to.re "888")) (re.union (str.to.re "9") (str.to.re "aa"))) (re.++ (re.union (re.+ (str.to.re "b")) (re.+ (str.to.re "ccc"))) (re.++ (re.union (re.* (str.to.re "d")) (re.* (str.to.re "eee"))) (re.++ (re.* (re.+ (str.to.re "ff"))) (re.++ (re.* (re.union (str.to.re "ggg") (str.to.re "h"))) (re.++ (re.+ (re.* (str.to.re "iii"))) (re.++ (re.union (re.* (str.to.re "jj")) (re.* (str.to.re "kk"))) (re.++ (re.+ (re.* (str.to.re "l"))) (re.++ (re.union (re.union (str.to.re "mmm") (str.to.re "n")) (re.union (str.to.re "ooo") (str.to.re "pp"))) (re.++ (re.* (re.union (str.to.re "qqq") (str.to.re "rr"))) (re.++ (re.+ (re.+ (str.to.re "ss"))) (re.++ (re.* (re.union (str.to.re "ttt") (str.to.re "u"))) (re.++ (re.+ (re.union (str.to.re "vvv") (str.to.re "www"))) (re.++ (re.union (re.* (str.to.re "xxx")) (re.* (str.to.re "yyy"))) (re.++ (re.union (re.+ (str.to.re "z")) (re.+ (str.to.re "A"))) (re.++ (re.* (re.+ (str.to.re "BBB"))) (re.++ (re.union (re.union (str.to.re "CCC") (str.to.re "DD")) (re.union (str.to.re "EE") (str.to.re "FF"))) (re.++ (re.union (re.union (str.to.re "G") (str.to.re "HH")) (re.union (str.to.re "I") (str.to.re "JJ"))) (re.++ (re.union (re.+ (str.to.re "KKK")) (re.+ (str.to.re "LLL"))) (re.++ (re.* (re.* (str.to.re "MM"))) (re.++ (re.* (re.union (str.to.re "NN") (str.to.re "OOO"))) (re.++ (re.* (re.* (str.to.re "PP"))) (re.++ (re.union (re.+ (str.to.re "QQQ")) (re.+ (str.to.re "R"))) (re.++ (re.+ (re.union (str.to.re "S") (str.to.re "T"))) (re.++ (re.union (re.+ (str.to.re "UU")) (re.+ (str.to.re "V"))) (re.++ (re.+ (re.union (str.to.re "W") (str.to.re "XX"))) (re.++ (re.+ (re.* (str.to.re "YY"))) (re.++ (re.+ (re.* (str.to.re "ZZ"))) (re.++ (re.union (re.union (str.to.re "!") (str.to.re """")) (re.union (str.to.re "###") (str.to.re "$"))) (re.++ (re.+ (re.+ (str.to.re "%%"))) (re.++ (re.union (re.* (str.to.re "&")) (re.* (str.to.re "'"))) (re.++ (re.+ (re.* (str.to.re "((("))) (re.++ (re.* (re.* (str.to.re ")))"))) (re.++ (re.+ (re.union (str.to.re "**") (str.to.re "+"))) (re.++ (re.* (re.+ (str.to.re ",,,"))) (re.++ (re.+ (re.union (str.to.re "--") (str.to.re "."))) (re.++ (re.+ (re.union (str.to.re "/") (str.to.re ":"))) (re.++ (re.+ (re.union (str.to.re ";") (str.to.re "<<<"))) (re.++ (re.* (re.union (str.to.re "==") (str.to.re ">"))) (re.++ (re.+ (re.union (str.to.re "???") (str.to.re "@@"))) (re.++ (re.union (re.union (str.to.re "[") (str.to.re "\\\\")) (re.union (str.to.re "]]") (str.to.re "^^"))) (re.++ (re.* (re.* (str.to.re "___"))) (re.++ (re.* (re.+ (str.to.re "`"))) (re.++ (re.union (re.* (str.to.re "{")) (re.* (str.to.re "||"))) (re.++ (re.+ (re.union (str.to.re "}}") (str.to.re "~~~"))) (re.++ (re.union (re.+ (str.to.re "0")) (re.+ (str.to.re "1"))) (re.++ (re.* (re.+ (str.to.re "22"))) (re.++ (re.+ (re.+ (str.to.re "33"))) (re.++ (re.union (re.+ (str.to.re "4")) (re.+ (str.to.re "555"))) (re.++ (re.* (re.union (str.to.re "66") (str.to.re "777"))) (re.++ (re.* (re.* (str.to.re "888"))) (re.++ (re.+ (re.union (str.to.re "999") (str.to.re "a"))) (re.++ (re.* (re.+ (str.to.re "bb"))) (re.++ (re.* (re.+ (str.to.re "c"))) (re.++ (re.union (re.+ (str.to.re "d")) (re.+ (str.to.re "ee"))) (re.++ (re.* (re.+ (str.to.re "f"))) (re.++ (re.+ (re.+ (str.to.re "gg"))) (re.++ (re.* (re.+ (str.to.re "hhh"))) (re.++ (re.union (re.union (str.to.re "iii") (str.to.re "jjj")) (re.union (str.to.re "kkk") (str.to.re "ll"))) (re.++ (re.* (re.union (str.to.re "mmm") (str.to.re "nnn"))) (re.++ (re.union (re.+ (str.to.re "ooo")) (re.+ (str.to.re "p"))) (re.++ (re.* (re.+ (str.to.re "qq"))) (re.++ (re.union (re.union (str.to.re "r") (str.to.re "sss")) (re.union (str.to.re "tt") (str.to.re "uuu"))) (re.++ (re.* (re.* (str.to.re "vv"))) (re.++ (re.+ (re.union (str.to.re "ww") (str.to.re "xxx"))) (re.++ (re.union (re.* (str.to.re "yyy")) (re.* (str.to.re "zz"))) (re.++ (re.* (re.* (str.to.re "AA"))) (re.++ (re.* (re.+ (str.to.re "B"))) (re.++ (re.* (re.union (str.to.re "CC") (str.to.re "D"))) (re.++ (re.+ (re.+ (str.to.re "EE"))) (re.++ (re.+ (re.+ (str.to.re "FFF"))) (re.++ (re.* (re.* (str.to.re "GGG"))) (re.++ (re.* (re.* (str.to.re "HHH"))) (re.++ (re.+ (re.* (str.to.re "I"))) (re.++ (re.* (re.* (str.to.re "JJ"))) (re.++ (re.* (re.* (str.to.re "K"))) (re.++ (re.+ (re.+ (str.to.re "LL"))) (re.++ (re.+ (re.* (str.to.re "M"))) (re.++ (re.* (re.* (str.to.re "N"))) (re.++ (re.union (re.+ (str.to.re "OO")) (re.+ (str.to.re "PP"))) (re.++ (re.union (re.union (str.to.re "QQQ") (str.to.re "R")) (re.union (str.to.re "S") (str.to.re "TTT"))) (re.++ (re.* (re.union (str.to.re "UUU") (str.to.re "V"))) (re.++ (re.+ (re.union (str.to.re "W") (str.to.re "XXX"))) (re.++ (re.* (re.* (str.to.re "YY"))) (re.++ (re.union (re.+ (str.to.re "ZZ")) (re.+ (str.to.re "!"))) (re.++ (re.+ (re.* (str.to.re """"))) (re.++ (re.+ (re.+ (str.to.re "###"))) (re.++ (re.* (re.+ (str.to.re "$$"))) (re.++ (re.* (re.* (str.to.re "%"))) (re.++ (re.union (re.union (str.to.re "&&") (str.to.re "''")) (re.union (str.to.re "(((") (str.to.re ")))"))) (re.++ (re.* (re.union (str.to.re "***") (str.to.re "+"))) (re.++ (re.union (re.+ (str.to.re ",")) (re.+ (str.to.re "-"))) (re.++ (re.+ (re.+ (str.to.re ".."))) (re.++ (re.union (re.union (str.to.re "///") (str.to.re ":")) (re.union (str.to.re ";") (str.to.re "<<"))) (re.++ (re.+ (re.union (str.to.re "=") (str.to.re ">>>"))) (re.* (re.+ (str.to.re "?")))))))))))))))))))))))))))))))))))))))))))))))))))))))))))))))))))))))))))))))))))))))))))))))))))))))))))))))))))))))))))))))))))))))))))))))))))))))))))))))
(check-sat)